StudentsNr = 5;
InstructorsNr = 5;
DaysNr = 1;
SlotsPerDay = 12;
AvailabilitySlotsLenght = 3;
RoomNr = 2;
ProgrammNr = 1;
DegreeNr = 1;
RolesNr = 0;
CoursesNr = 2;
InstructorsProgramm = [{1}, {1}, {1}, {1}, {1}];
InstructorRolesPerProgramm = [||];
InstructorsAvailability = [|0, 0, 1, 1, |1, 0, 0, 0, |1, 1, 1, 1, |0, 0, 1, 0, |0, 1, 1, 1|];
StudentsProgramm = [1, 1, 1, 1, 1];
StudentsDegree = [1, 1, 1, 1, 1];
StudentsSupervisorId = [1, 4, 1, 4, 3];
StudentsCourseIds = [{1, 2}, {1, 2}, {1, 2}, {1, 2}, {1, 2}];
StudentsAvailability = [|1, 0, 1, 1, |1, 1, 1, 1, |1, 1, 1, 1, |1, 1, 1, 0, |1, 1, 1, 1|];
TheoryticalMinCard = [3, 2, 3, 2, 3];
CoursesInstructorIds = [{2, 4}, {4}];
RolesDemands = [];
RolesContinuity = [];
ExamLen = [2, 2, 2, 2, 2];
LunchTsMinLen = 0;
LunchStarts = [6..7];
SupervisorAvailable = 5;
OptimalLunchLenght = [2, 1];
OptimalStartTs = [1, 2];
OptimalFinishTs = [1, 11];
MinimizeRooms = 400;
RolesSoftContinuity = [|||];
SameDegreeInRoom = 20;
Mergeability = 2;
